language ESSENCE' 1.0
$ Minion SolverNodes: 175020
$ Minion SolverTotalTime: 7.68422
$ Minion SolverTimeOut: 0
$ Savile Row TotalTime: 1.344
letting carrying be [4, 8, 5, 10, 10, 11, 12, 12, 24, 24, 12, 13, 14, 15, 15, 30, 30, 30, 60, 60]
letting registers be [[-1, -1, -1, -1, 10, 11, 12, 12, 12, 12, 12, 13, 14, 15, 15, 15, 15, 30, 30, 30]]
letting steps be [1, 1, 1, 1, 4, 7, 7, 2, 5, 2, 3, 7, 7, 7, 2, 5, 2, 4, 5, 2]
